p cnf 190 2575
1 2 3 4 5 6 7 8 9 10 11 12 13 14 15 16 17 18 19 0
20 21 22 23 24 25 26 27 28 29 30 31 32 33 34 35 36 37 38 0
39 40 41 42 43 44 45 46 47 48 49 50 51 52 53 54 55 56 57 0
58 59 60 61 62 63 64 65 66 67 68 69 70 71 72 73 74 75 76 0
77 78 79 80 81 82 83 84 85 86 87 88 89 90 91 92 93 94 95 0
96 97 98 99 100 101 102 103 104 105 106 107 108 109 110 111 112 113 114 0
115 116 117 118 119 120 121 122 123 124 125 126 127 128 129 130 131 132 133 0
134 135 136 137 138 139 140 141 142 143 144 145 146 147 148 149 150 151 152 0
153 154 155 156 157 158 159 160 161 162 163 164 165 166 167 168 169 170 171 0
172 173 174 175 176 177 178 179 180 181 182 183 184 185 186 187 188 189 190 0
-1 -2 0
-1 -3 0
-1 -4 0
-1 -5 0
-1 -6 0
-1 -7 0
-1 -8 0
-1 -9 0
-1 -10 0
-1 -11 0
-1 -12 0
-1 -13 0
-1 -14 0
-1 -15 0
-1 -16 0
-1 -17 0
-1 -18 0
-1 -19 0
-2 -3 0
-2 -4 0
-2 -5 0
-2 -6 0
-2 -7 0
-2 -8 0
-2 -9 0
-2 -10 0
-2 -11 0
-2 -12 0
-2 -13 0
-2 -14 0
-2 -15 0
-2 -16 0
-2 -17 0
-2 -18 0
-2 -19 0
-3 -4 0
-3 -5 0
-3 -6 0
-3 -7 0
-3 -8 0
-3 -9 0
-3 -10 0
-3 -11 0
-3 -12 0
-3 -13 0
-3 -14 0
-3 -15 0
-3 -16 0
-3 -17 0
-3 -18 0
-3 -19 0
-4 -5 0
-4 -6 0
-4 -7 0
-4 -8 0
-4 -9 0
-4 -10 0
-4 -11 0
-4 -12 0
-4 -13 0
-4 -14 0
-4 -15 0
-4 -16 0
-4 -17 0
-4 -18 0
-4 -19 0
-5 -6 0
-5 -7 0
-5 -8 0
-5 -9 0
-5 -10 0
-5 -11 0
-5 -12 0
-5 -13 0
-5 -14 0
-5 -15 0
-5 -16 0
-5 -17 0
-5 -18 0
-5 -19 0
-6 -7 0
-6 -8 0
-6 -9 0
-6 -10 0
-6 -11 0
-6 -12 0
-6 -13 0
-6 -14 0
-6 -15 0
-6 -16 0
-6 -17 0
-6 -18 0
-6 -19 0
-7 -8 0
-7 -9 0
-7 -10 0
-7 -11 0
-7 -12 0
-7 -13 0
-7 -14 0
-7 -15 0
-7 -16 0
-7 -17 0
-7 -18 0
-7 -19 0
-8 -9 0
-8 -10 0
-8 -11 0
-8 -12 0
-8 -13 0
-8 -14 0
-8 -15 0
-8 -16 0
-8 -17 0
-8 -18 0
-8 -19 0
-9 -10 0
-9 -11 0
-9 -12 0
-9 -13 0
-9 -14 0
-9 -15 0
-9 -16 0
-9 -17 0
-9 -18 0
-9 -19 0
-10 -11 0
-10 -12 0
-10 -13 0
-10 -14 0
-10 -15 0
-10 -16 0
-10 -17 0
-10 -18 0
-10 -19 0
-11 -12 0
-11 -13 0
-11 -14 0
-11 -15 0
-11 -16 0
-11 -17 0
-11 -18 0
-11 -19 0
-12 -13 0
-12 -14 0
-12 -15 0
-12 -16 0
-12 -17 0
-12 -18 0
-12 -19 0
-13 -14 0
-13 -15 0
-13 -16 0
-13 -17 0
-13 -18 0
-13 -19 0
-14 -15 0
-14 -16 0
-14 -17 0
-14 -18 0
-14 -19 0
-15 -16 0
-15 -17 0
-15 -18 0
-15 -19 0
-16 -17 0
-16 -18 0
-16 -19 0
-17 -18 0
-17 -19 0
-18 -19 0
-20 -21 0
-20 -22 0
-20 -23 0
-20 -24 0
-20 -25 0
-20 -26 0
-20 -27 0
-20 -28 0
-20 -29 0
-20 -30 0
-20 -31 0
-20 -32 0
-20 -33 0
-20 -34 0
-20 -35 0
-20 -36 0
-20 -37 0
-20 -38 0
-21 -22 0
-21 -23 0
-21 -24 0
-21 -25 0
-21 -26 0
-21 -27 0
-21 -28 0
-21 -29 0
-21 -30 0
-21 -31 0
-21 -32 0
-21 -33 0
-21 -34 0
-21 -35 0
-21 -36 0
-21 -37 0
-21 -38 0
-22 -23 0
-22 -24 0
-22 -25 0
-22 -26 0
-22 -27 0
-22 -28 0
-22 -29 0
-22 -30 0
-22 -31 0
-22 -32 0
-22 -33 0
-22 -34 0
-22 -35 0
-22 -36 0
-22 -37 0
-22 -38 0
-23 -24 0
-23 -25 0
-23 -26 0
-23 -27 0
-23 -28 0
-23 -29 0
-23 -30 0
-23 -31 0
-23 -32 0
-23 -33 0
-23 -34 0
-23 -35 0
-23 -36 0
-23 -37 0
-23 -38 0
-24 -25 0
-24 -26 0
-24 -27 0
-24 -28 0
-24 -29 0
-24 -30 0
-24 -31 0
-24 -32 0
-24 -33 0
-24 -34 0
-24 -35 0
-24 -36 0
-24 -37 0
-24 -38 0
-25 -26 0
-25 -27 0
-25 -28 0
-25 -29 0
-25 -30 0
-25 -31 0
-25 -32 0
-25 -33 0
-25 -34 0
-25 -35 0
-25 -36 0
-25 -37 0
-25 -38 0
-26 -27 0
-26 -28 0
-26 -29 0
-26 -30 0
-26 -31 0
-26 -32 0
-26 -33 0
-26 -34 0
-26 -35 0
-26 -36 0
-26 -37 0
-26 -38 0
-27 -28 0
-27 -29 0
-27 -30 0
-27 -31 0
-27 -32 0
-27 -33 0
-27 -34 0
-27 -35 0
-27 -36 0
-27 -37 0
-27 -38 0
-28 -29 0
-28 -30 0
-28 -31 0
-28 -32 0
-28 -33 0
-28 -34 0
-28 -35 0
-28 -36 0
-28 -37 0
-28 -38 0
-29 -30 0
-29 -31 0
-29 -32 0
-29 -33 0
-29 -34 0
-29 -35 0
-29 -36 0
-29 -37 0
-29 -38 0
-30 -31 0
-30 -32 0
-30 -33 0
-30 -34 0
-30 -35 0
-30 -36 0
-30 -37 0
-30 -38 0
-31 -32 0
-31 -33 0
-31 -34 0
-31 -35 0
-31 -36 0
-31 -37 0
-31 -38 0
-32 -33 0
-32 -34 0
-32 -35 0
-32 -36 0
-32 -37 0
-32 -38 0
-33 -34 0
-33 -35 0
-33 -36 0
-33 -37 0
-33 -38 0
-34 -35 0
-34 -36 0
-34 -37 0
-34 -38 0
-35 -36 0
-35 -37 0
-35 -38 0
-36 -37 0
-36 -38 0
-37 -38 0
-39 -40 0
-39 -41 0
-39 -42 0
-39 -43 0
-39 -44 0
-39 -45 0
-39 -46 0
-39 -47 0
-39 -48 0
-39 -49 0
-39 -50 0
-39 -51 0
-39 -52 0
-39 -53 0
-39 -54 0
-39 -55 0
-39 -56 0
-39 -57 0
-40 -41 0
-40 -42 0
-40 -43 0
-40 -44 0
-40 -45 0
-40 -46 0
-40 -47 0
-40 -48 0
-40 -49 0
-40 -50 0
-40 -51 0
-40 -52 0
-40 -53 0
-40 -54 0
-40 -55 0
-40 -56 0
-40 -57 0
-41 -42 0
-41 -43 0
-41 -44 0
-41 -45 0
-41 -46 0
-41 -47 0
-41 -48 0
-41 -49 0
-41 -50 0
-41 -51 0
-41 -52 0
-41 -53 0
-41 -54 0
-41 -55 0
-41 -56 0
-41 -57 0
-42 -43 0
-42 -44 0
-42 -45 0
-42 -46 0
-42 -47 0
-42 -48 0
-42 -49 0
-42 -50 0
-42 -51 0
-42 -52 0
-42 -53 0
-42 -54 0
-42 -55 0
-42 -56 0
-42 -57 0
-43 -44 0
-43 -45 0
-43 -46 0
-43 -47 0
-43 -48 0
-43 -49 0
-43 -50 0
-43 -51 0
-43 -52 0
-43 -53 0
-43 -54 0
-43 -55 0
-43 -56 0
-43 -57 0
-44 -45 0
-44 -46 0
-44 -47 0
-44 -48 0
-44 -49 0
-44 -50 0
-44 -51 0
-44 -52 0
-44 -53 0
-44 -54 0
-44 -55 0
-44 -56 0
-44 -57 0
-45 -46 0
-45 -47 0
-45 -48 0
-45 -49 0
-45 -50 0
-45 -51 0
-45 -52 0
-45 -53 0
-45 -54 0
-45 -55 0
-45 -56 0
-45 -57 0
-46 -47 0
-46 -48 0
-46 -49 0
-46 -50 0
-46 -51 0
-46 -52 0
-46 -53 0
-46 -54 0
-46 -55 0
-46 -56 0
-46 -57 0
-47 -48 0
-47 -49 0
-47 -50 0
-47 -51 0
-47 -52 0
-47 -53 0
-47 -54 0
-47 -55 0
-47 -56 0
-47 -57 0
-48 -49 0
-48 -50 0
-48 -51 0
-48 -52 0
-48 -53 0
-48 -54 0
-48 -55 0
-48 -56 0
-48 -57 0
-49 -50 0
-49 -51 0
-49 -52 0
-49 -53 0
-49 -54 0
-49 -55 0
-49 -56 0
-49 -57 0
-50 -51 0
-50 -52 0
-50 -53 0
-50 -54 0
-50 -55 0
-50 -56 0
-50 -57 0
-51 -52 0
-51 -53 0
-51 -54 0
-51 -55 0
-51 -56 0
-51 -57 0
-52 -53 0
-52 -54 0
-52 -55 0
-52 -56 0
-52 -57 0
-53 -54 0
-53 -55 0
-53 -56 0
-53 -57 0
-54 -55 0
-54 -56 0
-54 -57 0
-55 -56 0
-55 -57 0
-56 -57 0
-58 -59 0
-58 -60 0
-58 -61 0
-58 -62 0
-58 -63 0
-58 -64 0
-58 -65 0
-58 -66 0
-58 -67 0
-58 -68 0
-58 -69 0
-58 -70 0
-58 -71 0
-58 -72 0
-58 -73 0
-58 -74 0
-58 -75 0
-58 -76 0
-59 -60 0
-59 -61 0
-59 -62 0
-59 -63 0
-59 -64 0
-59 -65 0
-59 -66 0
-59 -67 0
-59 -68 0
-59 -69 0
-59 -70 0
-59 -71 0
-59 -72 0
-59 -73 0
-59 -74 0
-59 -75 0
-59 -76 0
-60 -61 0
-60 -62 0
-60 -63 0
-60 -64 0
-60 -65 0
-60 -66 0
-60 -67 0
-60 -68 0
-60 -69 0
-60 -70 0
-60 -71 0
-60 -72 0
-60 -73 0
-60 -74 0
-60 -75 0
-60 -76 0
-61 -62 0
-61 -63 0
-61 -64 0
-61 -65 0
-61 -66 0
-61 -67 0
-61 -68 0
-61 -69 0
-61 -70 0
-61 -71 0
-61 -72 0
-61 -73 0
-61 -74 0
-61 -75 0
-61 -76 0
-62 -63 0
-62 -64 0
-62 -65 0
-62 -66 0
-62 -67 0
-62 -68 0
-62 -69 0
-62 -70 0
-62 -71 0
-62 -72 0
-62 -73 0
-62 -74 0
-62 -75 0
-62 -76 0
-63 -64 0
-63 -65 0
-63 -66 0
-63 -67 0
-63 -68 0
-63 -69 0
-63 -70 0
-63 -71 0
-63 -72 0
-63 -73 0
-63 -74 0
-63 -75 0
-63 -76 0
-64 -65 0
-64 -66 0
-64 -67 0
-64 -68 0
-64 -69 0
-64 -70 0
-64 -71 0
-64 -72 0
-64 -73 0
-64 -74 0
-64 -75 0
-64 -76 0
-65 -66 0
-65 -67 0
-65 -68 0
-65 -69 0
-65 -70 0
-65 -71 0
-65 -72 0
-65 -73 0
-65 -74 0
-65 -75 0
-65 -76 0
-66 -67 0
-66 -68 0
-66 -69 0
-66 -70 0
-66 -71 0
-66 -72 0
-66 -73 0
-66 -74 0
-66 -75 0
-66 -76 0
-67 -68 0
-67 -69 0
-67 -70 0
-67 -71 0
-67 -72 0
-67 -73 0
-67 -74 0
-67 -75 0
-67 -76 0
-68 -69 0
-68 -70 0
-68 -71 0
-68 -72 0
-68 -73 0
-68 -74 0
-68 -75 0
-68 -76 0
-69 -70 0
-69 -71 0
-69 -72 0
-69 -73 0
-69 -74 0
-69 -75 0
-69 -76 0
-70 -71 0
-70 -72 0
-70 -73 0
-70 -74 0
-70 -75 0
-70 -76 0
-71 -72 0
-71 -73 0
-71 -74 0
-71 -75 0
-71 -76 0
-72 -73 0
-72 -74 0
-72 -75 0
-72 -76 0
-73 -74 0
-73 -75 0
-73 -76 0
-74 -75 0
-74 -76 0
-75 -76 0
-77 -78 0
-77 -79 0
-77 -80 0
-77 -81 0
-77 -82 0
-77 -83 0
-77 -84 0
-77 -85 0
-77 -86 0
-77 -87 0
-77 -88 0
-77 -89 0
-77 -90 0
-77 -91 0
-77 -92 0
-77 -93 0
-77 -94 0
-77 -95 0
-78 -79 0
-78 -80 0
-78 -81 0
-78 -82 0
-78 -83 0
-78 -84 0
-78 -85 0
-78 -86 0
-78 -87 0
-78 -88 0
-78 -89 0
-78 -90 0
-78 -91 0
-78 -92 0
-78 -93 0
-78 -94 0
-78 -95 0
-79 -80 0
-79 -81 0
-79 -82 0
-79 -83 0
-79 -84 0
-79 -85 0
-79 -86 0
-79 -87 0
-79 -88 0
-79 -89 0
-79 -90 0
-79 -91 0
-79 -92 0
-79 -93 0
-79 -94 0
-79 -95 0
-80 -81 0
-80 -82 0
-80 -83 0
-80 -84 0
-80 -85 0
-80 -86 0
-80 -87 0
-80 -88 0
-80 -89 0
-80 -90 0
-80 -91 0
-80 -92 0
-80 -93 0
-80 -94 0
-80 -95 0
-81 -82 0
-81 -83 0
-81 -84 0
-81 -85 0
-81 -86 0
-81 -87 0
-81 -88 0
-81 -89 0
-81 -90 0
-81 -91 0
-81 -92 0
-81 -93 0
-81 -94 0
-81 -95 0
-82 -83 0
-82 -84 0
-82 -85 0
-82 -86 0
-82 -87 0
-82 -88 0
-82 -89 0
-82 -90 0
-82 -91 0
-82 -92 0
-82 -93 0
-82 -94 0
-82 -95 0
-83 -84 0
-83 -85 0
-83 -86 0
-83 -87 0
-83 -88 0
-83 -89 0
-83 -90 0
-83 -91 0
-83 -92 0
-83 -93 0
-83 -94 0
-83 -95 0
-84 -85 0
-84 -86 0
-84 -87 0
-84 -88 0
-84 -89 0
-84 -90 0
-84 -91 0
-84 -92 0
-84 -93 0
-84 -94 0
-84 -95 0
-85 -86 0
-85 -87 0
-85 -88 0
-85 -89 0
-85 -90 0
-85 -91 0
-85 -92 0
-85 -93 0
-85 -94 0
-85 -95 0
-86 -87 0
-86 -88 0
-86 -89 0
-86 -90 0
-86 -91 0
-86 -92 0
-86 -93 0
-86 -94 0
-86 -95 0
-87 -88 0
-87 -89 0
-87 -90 0
-87 -91 0
-87 -92 0
-87 -93 0
-87 -94 0
-87 -95 0
-88 -89 0
-88 -90 0
-88 -91 0
-88 -92 0
-88 -93 0
-88 -94 0
-88 -95 0
-89 -90 0
-89 -91 0
-89 -92 0
-89 -93 0
-89 -94 0
-89 -95 0
-90 -91 0
-90 -92 0
-90 -93 0
-90 -94 0
-90 -95 0
-91 -92 0
-91 -93 0
-91 -94 0
-91 -95 0
-92 -93 0
-92 -94 0
-92 -95 0
-93 -94 0
-93 -95 0
-94 -95 0
-96 -97 0
-96 -98 0
-96 -99 0
-96 -100 0
-96 -101 0
-96 -102 0
-96 -103 0
-96 -104 0
-96 -105 0
-96 -106 0
-96 -107 0
-96 -108 0
-96 -109 0
-96 -110 0
-96 -111 0
-96 -112 0
-96 -113 0
-96 -114 0
-97 -98 0
-97 -99 0
-97 -100 0
-97 -101 0
-97 -102 0
-97 -103 0
-97 -104 0
-97 -105 0
-97 -106 0
-97 -107 0
-97 -108 0
-97 -109 0
-97 -110 0
-97 -111 0
-97 -112 0
-97 -113 0
-97 -114 0
-98 -99 0
-98 -100 0
-98 -101 0
-98 -102 0
-98 -103 0
-98 -104 0
-98 -105 0
-98 -106 0
-98 -107 0
-98 -108 0
-98 -109 0
-98 -110 0
-98 -111 0
-98 -112 0
-98 -113 0
-98 -114 0
-99 -100 0
-99 -101 0
-99 -102 0
-99 -103 0
-99 -104 0
-99 -105 0
-99 -106 0
-99 -107 0
-99 -108 0
-99 -109 0
-99 -110 0
-99 -111 0
-99 -112 0
-99 -113 0
-99 -114 0
-100 -101 0
-100 -102 0
-100 -103 0
-100 -104 0
-100 -105 0
-100 -106 0
-100 -107 0
-100 -108 0
-100 -109 0
-100 -110 0
-100 -111 0
-100 -112 0
-100 -113 0
-100 -114 0
-101 -102 0
-101 -103 0
-101 -104 0
-101 -105 0
-101 -106 0
-101 -107 0
-101 -108 0
-101 -109 0
-101 -110 0
-101 -111 0
-101 -112 0
-101 -113 0
-101 -114 0
-102 -103 0
-102 -104 0
-102 -105 0
-102 -106 0
-102 -107 0
-102 -108 0
-102 -109 0
-102 -110 0
-102 -111 0
-102 -112 0
-102 -113 0
-102 -114 0
-103 -104 0
-103 -105 0
-103 -106 0
-103 -107 0
-103 -108 0
-103 -109 0
-103 -110 0
-103 -111 0
-103 -112 0
-103 -113 0
-103 -114 0
-104 -105 0
-104 -106 0
-104 -107 0
-104 -108 0
-104 -109 0
-104 -110 0
-104 -111 0
-104 -112 0
-104 -113 0
-104 -114 0
-105 -106 0
-105 -107 0
-105 -108 0
-105 -109 0
-105 -110 0
-105 -111 0
-105 -112 0
-105 -113 0
-105 -114 0
-106 -107 0
-106 -108 0
-106 -109 0
-106 -110 0
-106 -111 0
-106 -112 0
-106 -113 0
-106 -114 0
-107 -108 0
-107 -109 0
-107 -110 0
-107 -111 0
-107 -112 0
-107 -113 0
-107 -114 0
-108 -109 0
-108 -110 0
-108 -111 0
-108 -112 0
-108 -113 0
-108 -114 0
-109 -110 0
-109 -111 0
-109 -112 0
-109 -113 0
-109 -114 0
-110 -111 0
-110 -112 0
-110 -113 0
-110 -114 0
-111 -112 0
-111 -113 0
-111 -114 0
-112 -113 0
-112 -114 0
-113 -114 0
-115 -116 0
-115 -117 0
-115 -118 0
-115 -119 0
-115 -120 0
-115 -121 0
-115 -122 0
-115 -123 0
-115 -124 0
-115 -125 0
-115 -126 0
-115 -127 0
-115 -128 0
-115 -129 0
-115 -130 0
-115 -131 0
-115 -132 0
-115 -133 0
-116 -117 0
-116 -118 0
-116 -119 0
-116 -120 0
-116 -121 0
-116 -122 0
-116 -123 0
-116 -124 0
-116 -125 0
-116 -126 0
-116 -127 0
-116 -128 0
-116 -129 0
-116 -130 0
-116 -131 0
-116 -132 0
-116 -133 0
-117 -118 0
-117 -119 0
-117 -120 0
-117 -121 0
-117 -122 0
-117 -123 0
-117 -124 0
-117 -125 0
-117 -126 0
-117 -127 0
-117 -128 0
-117 -129 0
-117 -130 0
-117 -131 0
-117 -132 0
-117 -133 0
-118 -119 0
-118 -120 0
-118 -121 0
-118 -122 0
-118 -123 0
-118 -124 0
-118 -125 0
-118 -126 0
-118 -127 0
-118 -128 0
-118 -129 0
-118 -130 0
-118 -131 0
-118 -132 0
-118 -133 0
-119 -120 0
-119 -121 0
-119 -122 0
-119 -123 0
-119 -124 0
-119 -125 0
-119 -126 0
-119 -127 0
-119 -128 0
-119 -129 0
-119 -130 0
-119 -131 0
-119 -132 0
-119 -133 0
-120 -121 0
-120 -122 0
-120 -123 0
-120 -124 0
-120 -125 0
-120 -126 0
-120 -127 0
-120 -128 0
-120 -129 0
-120 -130 0
-120 -131 0
-120 -132 0
-120 -133 0
-121 -122 0
-121 -123 0
-121 -124 0
-121 -125 0
-121 -126 0
-121 -127 0
-121 -128 0
-121 -129 0
-121 -130 0
-121 -131 0
-121 -132 0
-121 -133 0
-122 -123 0
-122 -124 0
-122 -125 0
-122 -126 0
-122 -127 0
-122 -128 0
-122 -129 0
-122 -130 0
-122 -131 0
-122 -132 0
-122 -133 0
-123 -124 0
-123 -125 0
-123 -126 0
-123 -127 0
-123 -128 0
-123 -129 0
-123 -130 0
-123 -131 0
-123 -132 0
-123 -133 0
-124 -125 0
-124 -126 0
-124 -127 0
-124 -128 0
-124 -129 0
-124 -130 0
-124 -131 0
-124 -132 0
-124 -133 0
-125 -126 0
-125 -127 0
-125 -128 0
-125 -129 0
-125 -130 0
-125 -131 0
-125 -132 0
-125 -133 0
-126 -127 0
-126 -128 0
-126 -129 0
-126 -130 0
-126 -131 0
-126 -132 0
-126 -133 0
-127 -128 0
-127 -129 0
-127 -130 0
-127 -131 0
-127 -132 0
-127 -133 0
-128 -129 0
-128 -130 0
-128 -131 0
-128 -132 0
-128 -133 0
-129 -130 0
-129 -131 0
-129 -132 0
-129 -133 0
-130 -131 0
-130 -132 0
-130 -133 0
-131 -132 0
-131 -133 0
-132 -133 0
-134 -135 0
-134 -136 0
-134 -137 0
-134 -138 0
-134 -139 0
-134 -140 0
-134 -141 0
-134 -142 0
-134 -143 0
-134 -144 0
-134 -145 0
-134 -146 0
-134 -147 0
-134 -148 0
-134 -149 0
-134 -150 0
-134 -151 0
-134 -152 0
-135 -136 0
-135 -137 0
-135 -138 0
-135 -139 0
-135 -140 0
-135 -141 0
-135 -142 0
-135 -143 0
-135 -144 0
-135 -145 0
-135 -146 0
-135 -147 0
-135 -148 0
-135 -149 0
-135 -150 0
-135 -151 0
-135 -152 0
-136 -137 0
-136 -138 0
-136 -139 0
-136 -140 0
-136 -141 0
-136 -142 0
-136 -143 0
-136 -144 0
-136 -145 0
-136 -146 0
-136 -147 0
-136 -148 0
-136 -149 0
-136 -150 0
-136 -151 0
-136 -152 0
-137 -138 0
-137 -139 0
-137 -140 0
-137 -141 0
-137 -142 0
-137 -143 0
-137 -144 0
-137 -145 0
-137 -146 0
-137 -147 0
-137 -148 0
-137 -149 0
-137 -150 0
-137 -151 0
-137 -152 0
-138 -139 0
-138 -140 0
-138 -141 0
-138 -142 0
-138 -143 0
-138 -144 0
-138 -145 0
-138 -146 0
-138 -147 0
-138 -148 0
-138 -149 0
-138 -150 0
-138 -151 0
-138 -152 0
-139 -140 0
-139 -141 0
-139 -142 0
-139 -143 0
-139 -144 0
-139 -145 0
-139 -146 0
-139 -147 0
-139 -148 0
-139 -149 0
-139 -150 0
-139 -151 0
-139 -152 0
-140 -141 0
-140 -142 0
-140 -143 0
-140 -144 0
-140 -145 0
-140 -146 0
-140 -147 0
-140 -148 0
-140 -149 0
-140 -150 0
-140 -151 0
-140 -152 0
-141 -142 0
-141 -143 0
-141 -144 0
-141 -145 0
-141 -146 0
-141 -147 0
-141 -148 0
-141 -149 0
-141 -150 0
-141 -151 0
-141 -152 0
-142 -143 0
-142 -144 0
-142 -145 0
-142 -146 0
-142 -147 0
-142 -148 0
-142 -149 0
-142 -150 0
-142 -151 0
-142 -152 0
-143 -144 0
-143 -145 0
-143 -146 0
-143 -147 0
-143 -148 0
-143 -149 0
-143 -150 0
-143 -151 0
-143 -152 0
-144 -145 0
-144 -146 0
-144 -147 0
-144 -148 0
-144 -149 0
-144 -150 0
-144 -151 0
-144 -152 0
-145 -146 0
-145 -147 0
-145 -148 0
-145 -149 0
-145 -150 0
-145 -151 0
-145 -152 0
-146 -147 0
-146 -148 0
-146 -149 0
-146 -150 0
-146 -151 0
-146 -152 0
-147 -148 0
-147 -149 0
-147 -150 0
-147 -151 0
-147 -152 0
-148 -149 0
-148 -150 0
-148 -151 0
-148 -152 0
-149 -150 0
-149 -151 0
-149 -152 0
-150 -151 0
-150 -152 0
-151 -152 0
-153 -154 0
-153 -155 0
-153 -156 0
-153 -157 0
-153 -158 0
-153 -159 0
-153 -160 0
-153 -161 0
-153 -162 0
-153 -163 0
-153 -164 0
-153 -165 0
-153 -166 0
-153 -167 0
-153 -168 0
-153 -169 0
-153 -170 0
-153 -171 0
-154 -155 0
-154 -156 0
-154 -157 0
-154 -158 0
-154 -159 0
-154 -160 0
-154 -161 0
-154 -162 0
-154 -163 0
-154 -164 0
-154 -165 0
-154 -166 0
-154 -167 0
-154 -168 0
-154 -169 0
-154 -170 0
-154 -171 0
-155 -156 0
-155 -157 0
-155 -158 0
-155 -159 0
-155 -160 0
-155 -161 0
-155 -162 0
-155 -163 0
-155 -164 0
-155 -165 0
-155 -166 0
-155 -167 0
-155 -168 0
-155 -169 0
-155 -170 0
-155 -171 0
-156 -157 0
-156 -158 0
-156 -159 0
-156 -160 0
-156 -161 0
-156 -162 0
-156 -163 0
-156 -164 0
-156 -165 0
-156 -166 0
-156 -167 0
-156 -168 0
-156 -169 0
-156 -170 0
-156 -171 0
-157 -158 0
-157 -159 0
-157 -160 0
-157 -161 0
-157 -162 0
-157 -163 0
-157 -164 0
-157 -165 0
-157 -166 0
-157 -167 0
-157 -168 0
-157 -169 0
-157 -170 0
-157 -171 0
-158 -159 0
-158 -160 0
-158 -161 0
-158 -162 0
-158 -163 0
-158 -164 0
-158 -165 0
-158 -166 0
-158 -167 0
-158 -168 0
-158 -169 0
-158 -170 0
-158 -171 0
-159 -160 0
-159 -161 0
-159 -162 0
-159 -163 0
-159 -164 0
-159 -165 0
-159 -166 0
-159 -167 0
-159 -168 0
-159 -169 0
-159 -170 0
-159 -171 0
-160 -161 0
-160 -162 0
-160 -163 0
-160 -164 0
-160 -165 0
-160 -166 0
-160 -167 0
-160 -168 0
-160 -169 0
-160 -170 0
-160 -171 0
-161 -162 0
-161 -163 0
-161 -164 0
-161 -165 0
-161 -166 0
-161 -167 0
-161 -168 0
-161 -169 0
-161 -170 0
-161 -171 0
-162 -163 0
-162 -164 0
-162 -165 0
-162 -166 0
-162 -167 0
-162 -168 0
-162 -169 0
-162 -170 0
-162 -171 0
-163 -164 0
-163 -165 0
-163 -166 0
-163 -167 0
-163 -168 0
-163 -169 0
-163 -170 0
-163 -171 0
-164 -165 0
-164 -166 0
-164 -167 0
-164 -168 0
-164 -169 0
-164 -170 0
-164 -171 0
-165 -166 0
-165 -167 0
-165 -168 0
-165 -169 0
-165 -170 0
-165 -171 0
-166 -167 0
-166 -168 0
-166 -169 0
-166 -170 0
-166 -171 0
-167 -168 0
-167 -169 0
-167 -170 0
-167 -171 0
-168 -169 0
-168 -170 0
-168 -171 0
-169 -170 0
-169 -171 0
-170 -171 0
-172 -173 0
-172 -174 0
-172 -175 0
-172 -176 0
-172 -177 0
-172 -178 0
-172 -179 0
-172 -180 0
-172 -181 0
-172 -182 0
-172 -183 0
-172 -184 0
-172 -185 0
-172 -186 0
-172 -187 0
-172 -188 0
-172 -189 0
-172 -190 0
-173 -174 0
-173 -175 0
-173 -176 0
-173 -177 0
-173 -178 0
-173 -179 0
-173 -180 0
-173 -181 0
-173 -182 0
-173 -183 0
-173 -184 0
-173 -185 0
-173 -186 0
-173 -187 0
-173 -188 0
-173 -189 0
-173 -190 0
-174 -175 0
-174 -176 0
-174 -177 0
-174 -178 0
-174 -179 0
-174 -180 0
-174 -181 0
-174 -182 0
-174 -183 0
-174 -184 0
-174 -185 0
-174 -186 0
-174 -187 0
-174 -188 0
-174 -189 0
-174 -190 0
-175 -176 0
-175 -177 0
-175 -178 0
-175 -179 0
-175 -180 0
-175 -181 0
-175 -182 0
-175 -183 0
-175 -184 0
-175 -185 0
-175 -186 0
-175 -187 0
-175 -188 0
-175 -189 0
-175 -190 0
-176 -177 0
-176 -178 0
-176 -179 0
-176 -180 0
-176 -181 0
-176 -182 0
-176 -183 0
-176 -184 0
-176 -185 0
-176 -186 0
-176 -187 0
-176 -188 0
-176 -189 0
-176 -190 0
-177 -178 0
-177 -179 0
-177 -180 0
-177 -181 0
-177 -182 0
-177 -183 0
-177 -184 0
-177 -185 0
-177 -186 0
-177 -187 0
-177 -188 0
-177 -189 0
-177 -190 0
-178 -179 0
-178 -180 0
-178 -181 0
-178 -182 0
-178 -183 0
-178 -184 0
-178 -185 0
-178 -186 0
-178 -187 0
-178 -188 0
-178 -189 0
-178 -190 0
-179 -180 0
-179 -181 0
-179 -182 0
-179 -183 0
-179 -184 0
-179 -185 0
-179 -186 0
-179 -187 0
-179 -188 0
-179 -189 0
-179 -190 0
-180 -181 0
-180 -182 0
-180 -183 0
-180 -184 0
-180 -185 0
-180 -186 0
-180 -187 0
-180 -188 0
-180 -189 0
-180 -190 0
-181 -182 0
-181 -183 0
-181 -184 0
-181 -185 0
-181 -186 0
-181 -187 0
-181 -188 0
-181 -189 0
-181 -190 0
-182 -183 0
-182 -184 0
-182 -185 0
-182 -186 0
-182 -187 0
-182 -188 0
-182 -189 0
-182 -190 0
-183 -184 0
-183 -185 0
-183 -186 0
-183 -187 0
-183 -188 0
-183 -189 0
-183 -190 0
-184 -185 0
-184 -186 0
-184 -187 0
-184 -188 0
-184 -189 0
-184 -190 0
-185 -186 0
-185 -187 0
-185 -188 0
-185 -189 0
-185 -190 0
-186 -187 0
-186 -188 0
-186 -189 0
-186 -190 0
-187 -188 0
-187 -189 0
-187 -190 0
-188 -189 0
-188 -190 0
-189 -190 0
-1 -20 0
-2 -21 0
-3 -22 0
-4 -23 0
-5 -24 0
-6 -25 0
-7 -26 0
-8 -27 0
-9 -28 0
-10 -29 0
-11 -30 0
-12 -31 0
-13 -32 0
-14 -33 0
-15 -34 0
-16 -35 0
-17 -36 0
-18 -37 0
-19 -38 0
-1 -39 0
-2 -40 0
-3 -41 0
-4 -42 0
-5 -43 0
-6 -44 0
-7 -45 0
-8 -46 0
-9 -47 0
-10 -48 0
-11 -49 0
-12 -50 0
-13 -51 0
-14 -52 0
-15 -53 0
-16 -54 0
-17 -55 0
-18 -56 0
-19 -57 0
-1 -58 0
-2 -59 0
-3 -60 0
-4 -61 0
-5 -62 0
-6 -63 0
-7 -64 0
-8 -65 0
-9 -66 0
-10 -67 0
-11 -68 0
-12 -69 0
-13 -70 0
-14 -71 0
-15 -72 0
-16 -73 0
-17 -74 0
-18 -75 0
-19 -76 0
-1 -77 0
-2 -78 0
-3 -79 0
-4 -80 0
-5 -81 0
-6 -82 0
-7 -83 0
-8 -84 0
-9 -85 0
-10 -86 0
-11 -87 0
-12 -88 0
-13 -89 0
-14 -90 0
-15 -91 0
-16 -92 0
-17 -93 0
-18 -94 0
-19 -95 0
-1 -96 0
-2 -97 0
-3 -98 0
-4 -99 0
-5 -100 0
-6 -101 0
-7 -102 0
-8 -103 0
-9 -104 0
-10 -105 0
-11 -106 0
-12 -107 0
-13 -108 0
-14 -109 0
-15 -110 0
-16 -111 0
-17 -112 0
-18 -113 0
-19 -114 0
-1 -115 0
-2 -116 0
-3 -117 0
-4 -118 0
-5 -119 0
-6 -120 0
-7 -121 0
-8 -122 0
-9 -123 0
-10 -124 0
-11 -125 0
-12 -126 0
-13 -127 0
-14 -128 0
-15 -129 0
-16 -130 0
-17 -131 0
-18 -132 0
-19 -133 0
-1 -134 0
-2 -135 0
-3 -136 0
-4 -137 0
-5 -138 0
-6 -139 0
-7 -140 0
-8 -141 0
-9 -142 0
-10 -143 0
-11 -144 0
-12 -145 0
-13 -146 0
-14 -147 0
-15 -148 0
-16 -149 0
-17 -150 0
-18 -151 0
-19 -152 0
-1 -153 0
-2 -154 0
-3 -155 0
-4 -156 0
-5 -157 0
-6 -158 0
-7 -159 0
-8 -160 0
-9 -161 0
-10 -162 0
-11 -163 0
-12 -164 0
-13 -165 0
-14 -166 0
-15 -167 0
-16 -168 0
-17 -169 0
-18 -170 0
-19 -171 0
-1 -172 0
-2 -173 0
-3 -174 0
-4 -175 0
-5 -176 0
-6 -177 0
-7 -178 0
-8 -179 0
-9 -180 0
-10 -181 0
-11 -182 0
-12 -183 0
-13 -184 0
-14 -185 0
-15 -186 0
-16 -187 0
-17 -188 0
-18 -189 0
-19 -190 0
-20 -39 0
-21 -40 0
-22 -41 0
-23 -42 0
-24 -43 0
-25 -44 0
-26 -45 0
-27 -46 0
-28 -47 0
-29 -48 0
-30 -49 0
-31 -50 0
-32 -51 0
-33 -52 0
-34 -53 0
-35 -54 0
-36 -55 0
-37 -56 0
-38 -57 0
-20 -58 0
-21 -59 0
-22 -60 0
-23 -61 0
-24 -62 0
-25 -63 0
-26 -64 0
-27 -65 0
-28 -66 0
-29 -67 0
-30 -68 0
-31 -69 0
-32 -70 0
-33 -71 0
-34 -72 0
-35 -73 0
-36 -74 0
-37 -75 0
-38 -76 0
-20 -77 0
-21 -78 0
-22 -79 0
-23 -80 0
-24 -81 0
-25 -82 0
-26 -83 0
-27 -84 0
-28 -85 0
-29 -86 0
-30 -87 0
-31 -88 0
-32 -89 0
-33 -90 0
-34 -91 0
-35 -92 0
-36 -93 0
-37 -94 0
-38 -95 0
-20 -96 0
-21 -97 0
-22 -98 0
-23 -99 0
-24 -100 0
-25 -101 0
-26 -102 0
-27 -103 0
-28 -104 0
-29 -105 0
-30 -106 0
-31 -107 0
-32 -108 0
-33 -109 0
-34 -110 0
-35 -111 0
-36 -112 0
-37 -113 0
-38 -114 0
-20 -115 0
-21 -116 0
-22 -117 0
-23 -118 0
-24 -119 0
-25 -120 0
-26 -121 0
-27 -122 0
-28 -123 0
-29 -124 0
-30 -125 0
-31 -126 0
-32 -127 0
-33 -128 0
-34 -129 0
-35 -130 0
-36 -131 0
-37 -132 0
-38 -133 0
-20 -134 0
-21 -135 0
-22 -136 0
-23 -137 0
-24 -138 0
-25 -139 0
-26 -140 0
-27 -141 0
-28 -142 0
-29 -143 0
-30 -144 0
-31 -145 0
-32 -146 0
-33 -147 0
-34 -148 0
-35 -149 0
-36 -150 0
-37 -151 0
-38 -152 0
-20 -153 0
-21 -154 0
-22 -155 0
-23 -156 0
-24 -157 0
-25 -158 0
-26 -159 0
-27 -160 0
-28 -161 0
-29 -162 0
-30 -163 0
-31 -164 0
-32 -165 0
-33 -166 0
-34 -167 0
-35 -168 0
-36 -169 0
-37 -170 0
-38 -171 0
-20 -172 0
-21 -173 0
-22 -174 0
-23 -175 0
-24 -176 0
-25 -177 0
-26 -178 0
-27 -179 0
-28 -180 0
-29 -181 0
-30 -182 0
-31 -183 0
-32 -184 0
-33 -185 0
-34 -186 0
-35 -187 0
-36 -188 0
-37 -189 0
-38 -190 0
-39 -58 0
-40 -59 0
-41 -60 0
-42 -61 0
-43 -62 0
-44 -63 0
-45 -64 0
-46 -65 0
-47 -66 0
-48 -67 0
-49 -68 0
-50 -69 0
-51 -70 0
-52 -71 0
-53 -72 0
-54 -73 0
-55 -74 0
-56 -75 0
-57 -76 0
-39 -77 0
-40 -78 0
-41 -79 0
-42 -80 0
-43 -81 0
-44 -82 0
-45 -83 0
-46 -84 0
-47 -85 0
-48 -86 0
-49 -87 0
-50 -88 0
-51 -89 0
-52 -90 0
-53 -91 0
-54 -92 0
-55 -93 0
-56 -94 0
-57 -95 0
-39 -96 0
-40 -97 0
-41 -98 0
-42 -99 0
-43 -100 0
-44 -101 0
-45 -102 0
-46 -103 0
-47 -104 0
-48 -105 0
-49 -106 0
-50 -107 0
-51 -108 0
-52 -109 0
-53 -110 0
-54 -111 0
-55 -112 0
-56 -113 0
-57 -114 0
-39 -115 0
-40 -116 0
-41 -117 0
-42 -118 0
-43 -119 0
-44 -120 0
-45 -121 0
-46 -122 0
-47 -123 0
-48 -124 0
-49 -125 0
-50 -126 0
-51 -127 0
-52 -128 0
-53 -129 0
-54 -130 0
-55 -131 0
-56 -132 0
-57 -133 0
-39 -134 0
-40 -135 0
-41 -136 0
-42 -137 0
-43 -138 0
-44 -139 0
-45 -140 0
-46 -141 0
-47 -142 0
-48 -143 0
-49 -144 0
-50 -145 0
-51 -146 0
-52 -147 0
-53 -148 0
-54 -149 0
-55 -150 0
-56 -151 0
-57 -152 0
-39 -153 0
-40 -154 0
-41 -155 0
-42 -156 0
-43 -157 0
-44 -158 0
-45 -159 0
-46 -160 0
-47 -161 0
-48 -162 0
-49 -163 0
-50 -164 0
-51 -165 0
-52 -166 0
-53 -167 0
-54 -168 0
-55 -169 0
-56 -170 0
-57 -171 0
-39 -172 0
-40 -173 0
-41 -174 0
-42 -175 0
-43 -176 0
-44 -177 0
-45 -178 0
-46 -179 0
-47 -180 0
-48 -181 0
-49 -182 0
-50 -183 0
-51 -184 0
-52 -185 0
-53 -186 0
-54 -187 0
-55 -188 0
-56 -189 0
-57 -190 0
-58 -77 0
-59 -78 0
-60 -79 0
-61 -80 0
-62 -81 0
-63 -82 0
-64 -83 0
-65 -84 0
-66 -85 0
-67 -86 0
-68 -87 0
-69 -88 0
-70 -89 0
-71 -90 0
-72 -91 0
-73 -92 0
-74 -93 0
-75 -94 0
-76 -95 0
-58 -96 0
-59 -97 0
-60 -98 0
-61 -99 0
-62 -100 0
-63 -101 0
-64 -102 0
-65 -103 0
-66 -104 0
-67 -105 0
-68 -106 0
-69 -107 0
-70 -108 0
-71 -109 0
-72 -110 0
-73 -111 0
-74 -112 0
-75 -113 0
-76 -114 0
-58 -115 0
-59 -116 0
-60 -117 0
-61 -118 0
-62 -119 0
-63 -120 0
-64 -121 0
-65 -122 0
-66 -123 0
-67 -124 0
-68 -125 0
-69 -126 0
-70 -127 0
-71 -128 0
-72 -129 0
-73 -130 0
-74 -131 0
-75 -132 0
-76 -133 0
-58 -134 0
-59 -135 0
-60 -136 0
-61 -137 0
-62 -138 0
-63 -139 0
-64 -140 0
-65 -141 0
-66 -142 0
-67 -143 0
-68 -144 0
-69 -145 0
-70 -146 0
-71 -147 0
-72 -148 0
-73 -149 0
-74 -150 0
-75 -151 0
-76 -152 0
-58 -153 0
-59 -154 0
-60 -155 0
-61 -156 0
-62 -157 0
-63 -158 0
-64 -159 0
-65 -160 0
-66 -161 0
-67 -162 0
-68 -163 0
-69 -164 0
-70 -165 0
-71 -166 0
-72 -167 0
-73 -168 0
-74 -169 0
-75 -170 0
-76 -171 0
-58 -172 0
-59 -173 0
-60 -174 0
-61 -175 0
-62 -176 0
-63 -177 0
-64 -178 0
-65 -179 0
-66 -180 0
-67 -181 0
-68 -182 0
-69 -183 0
-70 -184 0
-71 -185 0
-72 -186 0
-73 -187 0
-74 -188 0
-75 -189 0
-76 -190 0
-77 -96 0
-78 -97 0
-79 -98 0
-80 -99 0
-81 -100 0
-82 -101 0
-83 -102 0
-84 -103 0
-85 -104 0
-86 -105 0
-87 -106 0
-88 -107 0
-89 -108 0
-90 -109 0
-91 -110 0
-92 -111 0
-93 -112 0
-94 -113 0
-95 -114 0
-77 -115 0
-78 -116 0
-79 -117 0
-80 -118 0
-81 -119 0
-82 -120 0
-83 -121 0
-84 -122 0
-85 -123 0
-86 -124 0
-87 -125 0
-88 -126 0
-89 -127 0
-90 -128 0
-91 -129 0
-92 -130 0
-93 -131 0
-94 -132 0
-95 -133 0
-77 -134 0
-78 -135 0
-79 -136 0
-80 -137 0
-81 -138 0
-82 -139 0
-83 -140 0
-84 -141 0
-85 -142 0
-86 -143 0
-87 -144 0
-88 -145 0
-89 -146 0
-90 -147 0
-91 -148 0
-92 -149 0
-93 -150 0
-94 -151 0
-95 -152 0
-77 -153 0
-78 -154 0
-79 -155 0
-80 -156 0
-81 -157 0
-82 -158 0
-83 -159 0
-84 -160 0
-85 -161 0
-86 -162 0
-87 -163 0
-88 -164 0
-89 -165 0
-90 -166 0
-91 -167 0
-92 -168 0
-93 -169 0
-94 -170 0
-95 -171 0
-77 -172 0
-78 -173 0
-79 -174 0
-80 -175 0
-81 -176 0
-82 -177 0
-83 -178 0
-84 -179 0
-85 -180 0
-86 -181 0
-87 -182 0
-88 -183 0
-89 -184 0
-90 -185 0
-91 -186 0
-92 -187 0
-93 -188 0
-94 -189 0
-95 -190 0
-96 -115 0
-97 -116 0
-98 -117 0
-99 -118 0
-100 -119 0
-101 -120 0
-102 -121 0
-103 -122 0
-104 -123 0
-105 -124 0
-106 -125 0
-107 -126 0
-108 -127 0
-109 -128 0
-110 -129 0
-111 -130 0
-112 -131 0
-113 -132 0
-114 -133 0
-96 -134 0
-97 -135 0
-98 -136 0
-99 -137 0
-100 -138 0
-101 -139 0
-102 -140 0
-103 -141 0
-104 -142 0
-105 -143 0
-106 -144 0
-107 -145 0
-108 -146 0
-109 -147 0
-110 -148 0
-111 -149 0
-112 -150 0
-113 -151 0
-114 -152 0
-96 -153 0
-97 -154 0
-98 -155 0
-99 -156 0
-100 -157 0
-101 -158 0
-102 -159 0
-103 -160 0
-104 -161 0
-105 -162 0
-106 -163 0
-107 -164 0
-108 -165 0
-109 -166 0
-110 -167 0
-111 -168 0
-112 -169 0
-113 -170 0
-114 -171 0
-96 -172 0
-97 -173 0
-98 -174 0
-99 -175 0
-100 -176 0
-101 -177 0
-102 -178 0
-103 -179 0
-104 -180 0
-105 -181 0
-106 -182 0
-107 -183 0
-108 -184 0
-109 -185 0
-110 -186 0
-111 -187 0
-112 -188 0
-113 -189 0
-114 -190 0
-115 -134 0
-116 -135 0
-117 -136 0
-118 -137 0
-119 -138 0
-120 -139 0
-121 -140 0
-122 -141 0
-123 -142 0
-124 -143 0
-125 -144 0
-126 -145 0
-127 -146 0
-128 -147 0
-129 -148 0
-130 -149 0
-131 -150 0
-132 -151 0
-133 -152 0
-115 -153 0
-116 -154 0
-117 -155 0
-118 -156 0
-119 -157 0
-120 -158 0
-121 -159 0
-122 -160 0
-123 -161 0
-124 -162 0
-125 -163 0
-126 -164 0
-127 -165 0
-128 -166 0
-129 -167 0
-130 -168 0
-131 -169 0
-132 -170 0
-133 -171 0
-115 -172 0
-116 -173 0
-117 -174 0
-118 -175 0
-119 -176 0
-120 -177 0
-121 -178 0
-122 -179 0
-123 -180 0
-124 -181 0
-125 -182 0
-126 -183 0
-127 -184 0
-128 -185 0
-129 -186 0
-130 -187 0
-131 -188 0
-132 -189 0
-133 -190 0
-134 -153 0
-135 -154 0
-136 -155 0
-137 -156 0
-138 -157 0
-139 -158 0
-140 -159 0
-141 -160 0
-142 -161 0
-143 -162 0
-144 -163 0
-145 -164 0
-146 -165 0
-147 -166 0
-148 -167 0
-149 -168 0
-150 -169 0
-151 -170 0
-152 -171 0
-134 -172 0
-135 -173 0
-136 -174 0
-137 -175 0
-138 -176 0
-139 -177 0
-140 -178 0
-141 -179 0
-142 -180 0
-143 -181 0
-144 -182 0
-145 -183 0
-146 -184 0
-147 -185 0
-148 -186 0
-149 -187 0
-150 -188 0
-151 -189 0
-152 -190 0
-153 -172 0
-154 -173 0
-155 -174 0
-156 -175 0
-157 -176 0
-158 -177 0
-159 -178 0
-160 -179 0
-161 -180 0
-162 -181 0
-163 -182 0
-164 -183 0
-165 -184 0
-166 -185 0
-167 -186 0
-168 -187 0
-169 -188 0
-170 -189 0
-171 -190 0
